Optimal - objective value 498.00000000
      0 C                       498                       0
      1 x_0_0                   100                       0
      2 x_0_1                   287                       0
      3 x_0_2                   293                       0
      4 x_0_3                   294                       0
      5 x_0_4                   300                       0
      6 x_0_5                   492                       0
      8 x_1_1                     4                       0
      9 x_1_2                    98                       0
     10 x_1_3                   194                       0
     11 x_1_4                   198                       0
     12 x_1_5                   494                       0
     13 x_2_0                     1                       0
     14 x_2_1                   194                       0
     15 x_2_2                   294                       0
     16 x_2_3                   299                       0
     17 x_2_4                   398                       0
     18 x_2_5                   403                       0
     20 x_3_1                    96                       0
     21 x_3_2                   194                       0
     22 x_3_3                   197                       0
     23 x_3_4                   295                       0
     24 x_3_5                   395                       0
     25 x_4_0                     8                       0
     26 x_4_1                   296                       0
     27 x_4_2                   392                       0
     28 x_4_3                   395                       0
     29 x_4_4                   399                       0
     30 x_4_5                   404                       0
     31 x_5_0                     1                       0
     32 x_5_1                   193                       0
     33 x_5_2                   287                       0
     34 x_5_3                   293                       0
     35 x_5_4                   295                       0
     36 x_5_5                   396                       0
     38 x_6_1                     4                       0
     39 x_6_2                     7                       0
     40 x_6_3                   200                       0
     41 x_6_4                   299                       0
     42 x_6_5                   399                       0
     44 x_7_1                    97                       0
     45 x_7_2                   100                       0
     46 x_7_3                   281                       0
     47 x_7_4                   291                       0
     48 x_7_5                   296                       0
     49 y_0_1_0                   1                       0
     50 y_0_1_1                   1                       0
     52 y_0_1_3                   1                       0
     53 y_0_1_4                   1                       0
     54 y_0_1_5                   1                       0
     56 y_0_2_1                   1                       0
     57 y_0_2_2                   1                    2217
     61 y_0_3_0                   1                       0
     62 y_0_3_1                   1                       0
     65 y_0_3_4                   1                       0
     66 y_0_3_5                   1                       0
     68 y_0_4_1                   1                       0
     72 y_0_4_5                   1                       0
     73 y_0_5_0                   1                       0
     74 y_0_5_1                   1                       0
     76 y_0_5_3                   1                       0
     77 y_0_5_4                   1                       0
     78 y_0_5_5                   1                       0
     80 y_0_6_1                   1                       0
     81 y_0_6_2                   1                       0
     82 y_0_6_3                   1                       0
     83 y_0_6_4                   1                       0
     85 y_0_7_0                   1                       0
     86 y_0_7_1                   1                       0
     89 y_0_7_4                   1                       0
     90 y_0_7_5                   1                       0
     93 y_1_2_2                   1                       0
     97 y_1_3_0                   1                       0
     99 y_1_3_2                   1                       0
    101 y_1_3_4                   1                       0
    105 y_1_4_2                   1                       0
    109 y_1_5_0                   1                       0
    111 y_1_5_2                   1                       0
    117 y_1_6_2                   1                       0
    118 y_1_6_3                   1                       0
    121 y_1_7_0                   1                       0
    123 y_1_7_2                   1                       0
    125 y_1_7_4                   1                       0
    127 y_2_3_0                   1                       0
    130 y_2_3_3                   1                       0
    131 y_2_3_4                   1                       0
    132 y_2_3_5                   1                       0
    136 y_2_4_3                   1                       0
    138 y_2_4_5                   1                       0
    139 y_2_5_0                   1                       0
    142 y_2_5_3                   1                       0
    143 y_2_5_4                   1                       0
    144 y_2_5_5                   1                       0
    146 y_2_6_1                   1                       0
    147 y_2_6_2                   1                    2217
    148 y_2_6_3                   1                       0
    149 y_2_6_4                   1                       0
    151 y_2_7_0                   1                       0
    152 y_2_7_1                   1                       0
    154 y_2_7_3                   1                       0
    155 y_2_7_4                   1                       0
    156 y_2_7_5                   1                       0
    160 y_3_4_3                   1                       0
    162 y_3_4_5                   1                       0
    164 y_3_5_1                   1                       0
    166 y_3_5_3                   1                       0
    170 y_3_6_1                   1                       0
    171 y_3_6_2                   1                       0
    172 y_3_6_3                   1                       0
    176 y_3_7_1                   1                       0
    178 y_3_7_3                   1                       0
    179 y_3_7_4                   1                       0
    181 y_4_5_0                   1                       0
    182 y_4_5_1                   1                       0
    184 y_4_5_3                   1                       0
    185 y_4_5_4                   1                       0
    188 y_4_6_1                   1                       0
    189 y_4_6_2                   1                       0
    190 y_4_6_3                   1                       0
    191 y_4_6_4                   1                       0
    193 y_4_7_0                   1                       0
    194 y_4_7_1                   1                       0
    195 y_4_7_2                   1                    2217
    196 y_4_7_3                   1                       0
    197 y_4_7_4                   1                       0
    200 y_5_6_1                   1                       0
    201 y_5_6_2                   1                       0
    202 y_5_6_3                   1                       0
    203 y_5_6_4                   1                       0
    206 y_5_7_1                   1                       0
    207 y_5_7_2                   1                       0
    209 y_5_7_4                   1                       0
    210 y_5_7_5                   1                       0
    211 y_6_7_0                   1                       0
    215 y_6_7_4                   1                       0
    216 y_6_7_5                   1                       0
